p tw 1046 1509
1 2
1 179
3 4
3 107
3 108
5 6
5 181
7 8
7 110
7 111
9 10
9 108
9 109
11 12
11 113
11 114
13 14
13 116
13 117
15 16
15 111
15 112
17 18
17 119
17 120
19 20
19 114
19 115
21 22
21 122
21 123
23 24
23 190
25 26
25 125
25 126
27 28
27 117
27 118
29 30
29 128
29 129
31 32
31 120
31 121
33 34
33 131
33 132
35 36
35 123
35 124
37 38
37 134
37 135
39 40
39 198
41 42
41 137
41 138
43 44
43 126
43 127
45 46
45 140
45 141
47 48
47 129
47 130
49 50
49 143
49 144
51 52
51 132
51 133
53 54
53 146
53 147
55 56
55 135
55 136
57 58
57 207
59 60
59 149
59 150
61 62
61 138
61 139
63 64
63 152
63 153
65 66
65 141
65 142
67 68
67 155
67 156
69 70
69 144
69 145
71 72
71 158
71 159
73 74
73 147
73 148
75 76
75 150
75 151
77 78
77 161
77 162
79 80
79 153
79 154
81 82
81 164
81 165
83 84
83 156
83 157
85 86
85 167
85 168
87 88
87 159
87 160
89 90
89 162
89 163
91 92
91 170
91 171
93 94
93 165
93 166
95 96
95 173
95 174
97 98
97 168
97 169
99 100
99 171
99 172
101 102
101 176
101 177
103 104
103 174
103 175
105 106
105 177
105 178
107 108
107 180
108 109
109 183
110 111
110 182
111 112
112 186
113 114
113 184
114 115
115 188
116 117
116 185
117 118
118 192
119 120
119 187
120 121
121 194
122 123
122 189
123 124
124 196
125 126
125 191
126 127
127 200
128 129
128 193
129 130
130 202
131 132
131 195
132 133
133 204
134 135
134 197
135 136
136 206
137 138
137 199
138 139
139 209
140 141
140 201
141 142
142 211
143 144
143 203
144 145
145 213
146 147
146 205
147 148
148 215
149 150
149 208
150 151
151 216
152 153
152 210
153 154
154 218
155 156
155 212
156 157
157 220
158 159
158 214
159 160
160 222
161 162
161 217
162 163
163 223
164 165
164 219
165 166
166 225
167 168
167 221
168 169
169 227
170 171
170 224
171 172
172 228
173 174
173 226
174 175
175 230
176 177
176 229
177 178
178 231
179 232
179 233
180 290
181 235
181 236
182 233
182 234
183 238
183 239
184 294
185 236
185 237
186 241
186 242
187 239
187 240
188 244
188 245
189 299
190 247
190 248
191 301
192 250
192 251
193 242
193 243
194 253
194 254
195 245
195 246
196 256
196 257
197 307
198 259
198 260
199 248
199 249
200 262
200 263
201 251
201 252
202 265
202 266
203 254
203 255
204 268
204 269
205 257
205 258
206 316
207 317
208 260
208 261
209 271
209 272
210 263
210 264
211 274
211 275
212 266
212 267
213 277
213 278
214 269
214 270
215 325
216 326
217 272
217 273
218 280
218 281
219 275
219 276
220 283
220 284
221 278
221 279
222 332
223 333
224 281
224 282
225 286
225 287
226 284
226 285
227 337
228 338
229 287
229 288
230 340
231 341
232 233
232 289
233 234
234 292
235 236
235 291
236 237
237 295
238 239
238 293
239 240
240 297
241 242
241 296
242 243
243 303
244 245
244 298
245 246
246 305
247 248
247 300
248 249
249 309
250 251
250 302
251 252
252 311
253 254
253 304
254 255
255 313
256 257
256 306
257 258
258 315
259 260
259 308
260 261
261 318
262 263
262 310
263 264
264 320
265 266
265 312
266 267
267 322
268 269
268 314
269 270
270 324
271 272
271 319
272 273
273 327
274 275
274 321
275 276
276 329
277 278
277 323
278 279
279 331
280 281
280 328
281 282
282 334
283 284
283 330
284 285
285 336
286 287
286 335
287 288
288 339
289 342
289 343
290 343
290 344
291 345
291 346
292 346
292 347
293 348
293 349
294 349
294 350
295 417
296 351
296 352
297 352
297 353
298 354
298 355
299 355
299 356
300 357
300 358
301 358
301 359
302 360
302 361
303 361
303 362
304 363
304 364
305 364
305 365
306 366
306 367
307 367
307 368
308 369
308 370
309 370
309 371
310 372
310 373
311 373
311 374
312 375
312 376
313 376
313 377
314 378
314 379
315 379
315 380
316 438
317 381
317 382
318 382
318 383
319 384
319 385
320 385
320 386
321 387
321 388
322 388
322 389
323 390
323 391
324 391
324 392
325 447
326 393
326 394
327 394
327 395
328 396
328 397
329 397
329 398
330 399
330 400
331 400
331 401
332 454
333 402
333 403
334 403
334 404
335 405
335 406
336 406
336 407
337 459
338 408
338 409
339 409
339 410
340 462
341 463
342 343
342 411
343 344
344 412
345 346
345 413
346 347
347 414
348 349
348 415
349 350
350 416
351 352
351 418
352 353
353 419
354 355
354 420
355 356
356 421
357 358
357 422
358 359
359 423
360 361
360 424
361 362
362 425
363 364
363 426
364 365
365 427
366 367
366 428
367 368
368 429
369 370
369 430
370 371
371 431
372 373
372 432
373 374
374 433
375 376
375 434
376 377
377 435
378 379
378 436
379 380
380 437
381 382
381 439
382 383
383 440
384 385
384 441
385 386
386 442
387 388
387 443
388 389
389 444
390 391
390 445
391 392
392 446
393 394
393 448
394 395
395 449
396 397
396 450
397 398
398 451
399 400
399 452
400 401
401 453
402 403
402 455
403 404
404 456
405 406
405 457
406 407
407 458
408 409
408 460
409 410
410 461
411 524
412 525
413 526
414 464
414 465
415 465
415 466
416 529
417 467
417 468
418 468
418 469
419 470
419 471
420 471
420 472
421 534
422 535
423 473
423 474
424 474
424 475
425 476
425 477
426 477
426 478
427 479
427 480
428 480
428 481
429 542
430 543
431 482
431 483
432 483
432 484
433 485
433 486
434 486
434 487
435 488
435 489
436 489
436 490
437 491
437 492
438 492
438 493
439 552
440 494
440 495
441 495
441 496
442 497
442 498
443 498
443 499
444 500
444 501
445 501
445 502
446 503
446 504
447 504
447 505
448 561
449 506
449 507
450 507
450 508
451 509
451 510
452 510
452 511
453 512
453 513
454 513
454 514
455 568
456 515
456 516
457 516
457 517
458 518
458 519
459 519
459 520
460 573
461 521
461 522
462 522
462 523
463 576
464 465
464 527
465 466
466 528
467 468
467 530
468 469
469 531
470 471
470 532
471 472
472 533
473 474
473 536
474 475
475 537
476 477
476 538
477 478
478 539
479 480
479 540
480 481
481 541
482 483
482 544
483 484
484 545
485 486
485 546
486 487
487 547
488 489
488 548
489 490
490 549
491 492
491 550
492 493
493 551
494 495
494 553
495 496
496 554
497 498
497 555
498 499
499 556
500 501
500 557
501 502
502 558
503 504
503 559
504 505
505 560
506 507
506 562
507 508
508 563
509 510
509 564
510 511
511 565
512 513
512 566
513 514
514 567
515 516
515 569
516 517
517 570
518 519
518 571
519 520
520 572
521 522
521 574
522 523
523 575
524 577
524 578
525 578
525 579
526 580
526 581
527 581
527 582
528 583
528 584
529 584
529 585
530 652
531 586
531 587
532 587
532 588
533 589
533 590
534 590
534 591
535 592
535 593
536 593
536 594
537 595
537 596
538 596
538 597
539 598
539 599
540 599
540 600
541 601
541 602
542 602
542 603
543 604
543 605
544 605
544 606
545 607
545 608
546 608
546 609
547 610
547 611
548 611
548 612
549 613
549 614
550 614
550 615
551 673
552 616
552 617
553 617
553 618
554 619
554 620
555 620
555 621
556 622
556 623
557 623
557 624
558 625
558 626
559 626
559 627
560 682
561 628
561 629
562 629
562 630
563 631
563 632
564 632
564 633
565 634
565 635
566 635
566 636
567 689
568 637
568 638
569 638
569 639
570 640
570 641
571 641
571 642
572 694
573 643
573 644
574 644
574 645
575 697
576 698
577 578
577 646
578 579
579 647
580 581
580 648
581 582
582 649
583 584
583 650
584 585
585 651
586 587
586 653
587 588
588 654
589 590
589 655
590 591
591 656
592 593
592 657
593 594
594 658
595 596
595 659
596 597
597 660
598 599
598 661
599 600
600 662
601 602
601 663
602 603
603 664
604 605
604 665
605 606
606 666
607 608
607 667
608 609
609 668
610 611
610 669
611 612
612 670
613 614
613 671
614 615
615 672
616 617
616 674
617 618
618 675
619 620
619 676
620 621
621 677
622 623
622 678
623 624
624 679
625 626
625 680
626 627
627 681
628 629
628 683
629 630
630 684
631 632
631 685
632 633
633 686
634 635
634 687
635 636
636 688
637 638
637 690
638 639
639 691
640 641
640 692
641 642
642 693
643 644
643 695
644 645
645 696
646 759
647 760
648 761
649 699
649 700
650 700
650 701
651 764
652 702
652 703
653 703
653 704
654 705
654 706
655 706
655 707
656 769
657 770
658 708
658 709
659 709
659 710
660 711
660 712
661 712
661 713
662 714
662 715
663 715
663 716
664 777
665 778
666 717
666 718
667 718
667 719
668 720
668 721
669 721
669 722
670 723
670 724
671 724
671 725
672 726
672 727
673 727
673 728
674 787
675 729
675 730
676 730
676 731
677 732
677 733
678 733
678 734
679 735
679 736
680 736
680 737
681 738
681 739
682 739
682 740
683 796
684 741
684 742
685 742
685 743
686 744
686 745
687 745
687 746
688 747
688 748
689 748
689 749
690 803
691 750
691 751
692 751
692 752
693 753
693 754
694 754
694 755
695 808
696 756
696 757
697 757
697 758
698 811
699 700
699 762
700 701
701 763
702 703
702 765
703 704
704 766
705 706
705 767
706 707
707 768
708 709
708 771
709 710
710 772
711 712
711 773
712 713
713 774
714 715
714 775
715 716
716 776
717 718
717 779
718 719
719 780
720 721
720 781
721 722
722 782
723 724
723 783
724 725
725 784
726 727
726 785
727 728
728 786
729 730
729 788
730 731
731 789
732 733
732 790
733 734
734 791
735 736
735 792
736 737
737 793
738 739
738 794
739 740
740 795
741 742
741 797
742 743
743 798
744 745
744 799
745 746
746 800
747 748
747 801
748 749
749 802
750 751
750 804
751 752
752 805
753 754
753 806
754 755
755 807
756 757
756 809
757 758
758 810
759 884
760 812
760 813
761 886
762 815
762 816
763 813
763 814
764 818
764 819
765 821
765 822
766 816
766 817
767 824
767 825
768 819
768 820
769 827
769 828
770 895
771 830
771 831
772 822
772 823
773 833
773 834
774 825
774 826
775 836
775 837
776 828
776 829
777 839
777 840
778 903
779 842
779 843
780 831
780 832
781 845
781 846
782 834
782 835
783 848
783 849
784 837
784 838
785 851
785 852
786 840
786 841
787 912
788 854
788 855
789 843
789 844
790 857
790 858
791 846
791 847
792 860
792 861
793 849
793 850
794 863
794 864
795 852
795 853
796 855
796 856
797 866
797 867
798 858
798 859
799 869
799 870
800 861
800 862
801 872
801 873
802 864
802 865
803 867
803 868
804 875
804 876
805 870
805 871
806 878
806 879
807 873
807 874
808 876
808 877
809 881
809 882
810 879
810 880
811 882
811 883
812 813
812 885
813 814
814 888
815 816
815 887
816 817
817 891
818 819
818 889
819 820
820 893
821 822
821 890
822 823
823 897
824 825
824 892
825 826
826 899
827 828
827 894
828 829
829 901
830 831
830 896
831 832
832 905
833 834
833 898
834 835
835 907
836 837
836 900
837 838
838 909
839 840
839 902
840 841
841 911
842 843
842 904
843 844
844 914
845 846
845 906
846 847
847 916
848 849
848 908
849 850
850 918
851 852
851 910
852 853
853 920
854 855
854 913
855 856
856 921
857 858
857 915
858 859
859 923
860 861
860 917
861 862
862 925
863 864
863 919
864 865
865 927
866 867
866 922
867 868
868 928
869 870
869 924
870 871
871 930
872 873
872 926
873 874
874 932
875 876
875 929
876 877
877 933
878 879
878 931
879 880
880 935
881 882
881 934
882 883
883 936
884 937
884 938
885 995
886 940
886 941
887 938
887 939
888 943
888 944
889 999
890 941
890 942
891 946
891 947
892 944
892 945
893 949
893 950
894 1004
895 952
895 953
896 1006
897 955
897 956
898 947
898 948
899 958
899 959
900 950
900 951
901 961
901 962
902 1012
903 964
903 965
904 953
904 954
905 967
905 968
906 956
906 957
907 970
907 971
908 959
908 960
909 973
909 974
910 962
910 963
911 1021
912 1022
913 965
913 966
914 976
914 977
915 968
915 969
916 979
916 980
917 971
917 972
918 982
918 983
919 974
919 975
920 1030
921 1031
922 977
922 978
923 985
923 986
924 980
924 981
925 988
925 989
926 983
926 984
927 1037
928 1038
929 986
929 987
930 991
930 992
931 989
931 990
932 1042
933 1043
934 992
934 993
935 1045
936 1046
937 938
937 994
938 939
939 997
940 941
940 996
941 942
942 1000
943 944
943 998
944 945
945 1002
946 947
946 1001
947 948
948 1008
949 950
949 1003
950 951
951 1010
952 953
952 1005
953 954
954 1014
955 956
955 1007
956 957
957 1016
958 959
958 1009
959 960
960 1018
961 962
961 1011
962 963
963 1020
964 965
964 1013
965 966
966 1023
967 968
967 1015
968 969
969 1025
970 971
970 1017
971 972
972 1027
973 974
973 1019
974 975
975 1029
976 977
976 1024
977 978
978 1032
979 980
979 1026
980 981
981 1034
982 983
982 1028
983 984
984 1036
985 986
985 1033
986 987
987 1039
988 989
988 1035
989 990
990 1041
991 992
991 1040
992 993
993 1044
